(set-logic ALL)
(declare-const k Int)
(declare-fun C1 () (_ BitVec k))
(declare-fun %a () (_ BitVec k))
(declare-fun C2 () (_ BitVec k))
(assert (let ((_let_0 (bvult %a C1))) (and (bvult C1 C2) (not (= (and _let_0 (not (= %a C2))) _let_0)))))
(assert true)
(check-sat)